
Gurobi 9.0.2 (win64) logging started Sun Dec 27 04:47:18 2020

Changed value of parameter logfile to result\SunCable-20201227T0415\scenario_2030_m20_cab3800.log
   Prev:   Default: 
Gurobi Optimizer version 9.0.2 build v9.0.2rc0 (win64)
Optimize a model with 1243974 rows, 762167 columns and 3491691 nonzeros
Model fingerprint: 0x540bd225
Coefficient statistics:
  Matrix range     [1e-07, 4e+05]
  Objective range  [1e+00, 1e+00]
  Bounds range     [0e+00, 0e+00]
  RHS range        [2e-05, 3e+08]
Warning: Model contains large matrix coefficient range
         Consider reformulating model or setting NumericFocus parameter
         to avoid numerical issues.

Concurrent LP optimizer: primal simplex, dual simplex, and barrier
Showing barrier log only...

Presolve removed 1068997 rows and 595935 columns
Presolve time: 2.71s
Presolved: 174977 rows, 280098 columns, 652320 nonzeros

Ordering time: 0.08s

Barrier statistics:
 Dense cols : 5
 AA' NZ     : 6.422e+05
 Factor NZ  : 3.150e+06 (roughly 200 MBytes of memory)
 Factor Ops : 7.040e+07 (less than 1 second per iteration)
 Threads    : 30

                  Objective                Residual
Iter       Primal          Dual         Primal    Dual     Compl     Time
   0  -2.51776254e+16 -1.07293552e+15  7.34e+06 2.55e+04  3.02e+12     3s
   1  -5.46476404e+15 -1.08609512e+15  1.59e+06 4.56e+06  8.52e+11     3s
   2  -1.75494374e+15 -1.02428147e+15  5.12e+05 8.63e+05  2.46e+11     4s
   3  -3.45275357e+14 -8.98960458e+14  1.02e+05 1.37e+05  4.94e+10     4s
   4  -7.78669207e+13 -5.52849544e+14  2.21e+04 3.75e+04  1.18e+10     4s
   5  -2.41900562e+13 -3.73557273e+14  7.02e+03 1.86e+04  4.53e+09     5s
   6  -7.26497996e+12 -2.62641809e+14  2.30e+03 9.23e+03  1.92e+09     5s
   7  -2.21710615e+12 -1.01240139e+14  8.23e+02 8.00e+02  4.34e+08     5s
   8   4.79273404e+11 -2.53051621e+13  1.99e+01 3.94e+01  5.08e+07     5s
   9   2.75774853e+11 -1.77323781e+12  1.24e+00 1.27e+00  3.79e+06     5s
  10   1.16804647e+11 -7.25028174e+11  3.52e-01 4.73e-02  1.52e+06     6s
  11   3.08330407e+10 -1.73519041e+11  6.01e-02 7.45e-09  3.63e+05     6s
  12   1.50590481e+10 -5.76839578e+10  1.95e-02 7.45e-09  1.29e+05     6s
  13   1.02230032e+10 -1.69006633e+09  6.05e-03 1.12e-08  2.11e+04     7s
  14   8.78003971e+09  2.76644334e+09  2.63e-03 7.45e-09  1.06e+04     7s
  15   8.18509431e+09  4.55829356e+09  1.25e-03 5.59e-09  6.41e+03     7s
  16   7.88292259e+09  5.41431235e+09  5.63e-04 5.59e-09  4.35e+03     7s
  17   7.77286352e+09  5.87361490e+09  3.01e-04 3.73e-09  3.35e+03     7s
  18   7.69880707e+09  6.36795505e+09  1.32e-04 3.73e-09  2.34e+03     8s
  19   7.66676564e+09  6.62163795e+09  6.49e-05 3.73e-09  1.84e+03     8s
  20   7.64936391e+09  6.94466145e+09  3.84e-05 2.79e-09  1.24e+03     8s
  21   7.63896946e+09  6.98935267e+09  2.55e-05 2.79e-09  1.14e+03     8s
  22   7.63747312e+09  7.02960352e+09  2.39e-05 2.79e-09  1.07e+03     9s
  23   7.62796570e+09  7.09208714e+09  1.38e-05 2.79e-09  9.42e+02     9s
  24   7.62190092e+09  7.14343677e+09  7.40e-06 2.79e-09  8.41e+02     9s
  25   7.62049281e+09  7.18252194e+09  5.61e-06 2.79e-09  7.70e+02    10s
  26   7.61995747e+09  7.20716862e+09  4.70e-06 2.79e-09  7.26e+02    10s
  27   7.61715959e+09  7.27478427e+09  2.61e-06 2.79e-09  6.02e+02    10s
  28   7.61623389e+09  7.30502615e+09  2.02e-06 2.79e-09  5.47e+02    10s
  29   7.61507051e+09  7.34732537e+09  1.34e-06 2.79e-09  4.71e+02    11s
  30   7.61436666e+09  7.37055147e+09  7.34e-07 2.79e-09  4.29e+02    11s
  31   7.61391929e+09  7.39848773e+09  4.89e-07 2.79e-09  3.79e+02    11s
  32   7.61320091e+09  7.42394382e+09  3.05e-07 2.79e-09  3.33e+02    12s
  33   7.61272798e+09  7.45070864e+09  2.12e-07 1.86e-09  2.85e+02    12s
  34   7.61244750e+09  7.46282266e+09  1.58e-07 2.79e-09  2.63e+02    12s
  35   7.61184441e+09  7.48652762e+09  6.00e-08 2.79e-09  2.20e+02    13s
  36   7.61162647e+09  7.49569317e+09  3.97e-08 1.86e-09  2.04e+02    13s
  37   7.61155086e+09  7.51909384e+09  3.13e-08 1.86e-09  1.63e+02    13s
  38   7.61138434e+09  7.52906652e+09  2.01e-08 1.86e-09  1.45e+02    14s
  39   7.61127599e+09  7.53265659e+09  1.71e-08 2.79e-09  1.38e+02    14s
  40   7.61105827e+09  7.55546150e+09  1.59e-08 1.86e-09  9.78e+01    14s
  41   7.61095421e+09  7.56411362e+09  1.82e-08 1.86e-09  8.24e+01    15s
  42   7.61087856e+09  7.57616854e+09  3.51e-08 1.86e-09  6.10e+01    15s
  43   7.61085004e+09  7.57702121e+09  2.87e-08 2.79e-09  5.95e+01    15s
  44   7.61083052e+09  7.58123441e+09  3.94e-08 1.86e-09  5.20e+01    16s
  45   7.61080138e+09  7.58734878e+09  3.25e-08 1.86e-09  4.12e+01    16s
  46   7.61074473e+09  7.59570235e+09  5.71e-08 1.86e-09  2.64e+01    16s
  47   7.61066686e+09  7.60480558e+09  1.28e-07 1.86e-09  1.03e+01    17s
  48   7.61066399e+09  7.60617270e+09  7.93e-08 1.86e-09  7.90e+00    17s
  49   7.61064994e+09  7.61020581e+09  6.75e-08 2.79e-09  7.81e-01    17s
  50   7.61062601e+09  7.61060183e+09  3.05e-07 2.79e-09  4.25e-02    17s
  51   7.61062482e+09  7.61062457e+09  1.80e-08 2.79e-09  4.40e-04    18s
  52   7.61062482e+09  7.61062457e+09  1.06e-04 2.79e-09  4.39e-04    18s

Barrier solved model in 52 iterations and 17.94 seconds
Optimal objective 7.61062482e+09

Crossover log...

   16675 DPushes remaining with DInf 0.0000000e+00                18s
      53 DPushes remaining with DInf 0.0000000e+00                20s
       0 DPushes remaining with DInf 0.0000000e+00                20s

  133072 PPushes remaining with PInf 1.0751696e-04                20s
   63900 PPushes remaining with PInf 1.1580073e-01                30s
    6554 PPushes remaining with PInf 2.1271047e-02                35s
       0 PPushes remaining with PInf 0.0000000e+00                37s

  Push phase complete: Pinf 0.0000000e+00, Dinf 8.1035403e+04     37s

Iteration    Objective       Primal Inf.    Dual Inf.      Time
  149710    7.6106248e+09   0.000000e+00   8.103540e+04     37s
  150802    7.6106247e+09   0.000000e+00   0.000000e+00     42s

Solved with barrier
Solved in 150802 iterations and 41.56 seconds
Optimal objective  7.610624745e+09
Warning: unscaled primal violation = 0.000881503 and residual = 0.000881503
